RT is False
Default write of storage_offers_DA.csv just to have a file (but constraint should be inactive)
Reading model...
...model read.
creating competitive generators file...
...competitive generators recorded.
Loading data...
.. day-ahead data with real-time VRE data read.
Compiling instance...
...instance created.
Creating Offer Mitigation (model will solve as dispatch if TRUE)...
Solving...

Welcome to IBM(R) ILOG(R) CPLEX(R) Interactive Optimizer 12.8.0.0
  with Simplex, Mixed Integer & Barrier Optimizers
5725-A06 5725-A29 5724-Y48 5724-Y49 5724-Y54 5724-Y55 5655-Y21
Copyright IBM Corp. 1988, 2017.  All Rights Reserved.

Type 'help' for a list of available commands.
Type 'help' followed by a command name for more
information on commands.

CPLEX> Logfile 'cplex.log' closed.
Logfile 'C:\Users\llavi\Desktop\test919\logs\tmpizlv0xn9.cplex.log' open.
CPLEX> New value for parallel optimization mode: -1
CPLEX> New value for mixed integer optimality gap tolerance: 0.01
CPLEX> New value for integrality tolerance: 1e-09
CPLEX> New value for feasibility tolerance: 0.01
CPLEX> New value for deterministic time limit in ticks: 75000
CPLEX> Problem 'C:\Users\llavi\Desktop\test919\logs\tmplsd5_zjr.pyomo.lp' read.
Read time = 0.06 sec. (3.03 ticks)
CPLEX> Problem name         : C:\Users\llavi\Desktop\test919\logs\tmplsd5_zjr.pyomo.lp
Objective sense      : Minimize
Variables            :   26465  [Nneg: 1,  Box: 22000,  Free: 4464]
Objective nonzeros   :    2496
Linear constraints   :   27515  [Less: 14006,  Greater: 4416,  Equal: 9093]
  Nonzeros           :   89171
  RHS nonzeros       :   12270

Variables            : Min LB: -5000.000        Max UB: 1000000.       
Objective nonzeros   : Min   : 15.73158         Max   : 124.0997       
Linear constraints   :
  Nonzeros           : Min   : 0.8500000        Max   : 3000.000       
  RHS nonzeros       : Min   : 0.4083333        Max   : 5000.000       
CPLEX> CPXPARAM_Simplex_Tolerances_Feasibility          0.01
CPXPARAM_Parallel                                -1
CPXPARAM_DetTimeLimit                            75000
CPXPARAM_MIP_Tolerances_MIPGap                   0.01
CPXPARAM_MIP_Tolerances_Integrality              1.0000000000000001e-09
Parallel mode: opportunistic, using up to 4 threads for concurrent optimization.
Tried aggregator 1 time.
LP Presolve eliminated 21401 rows and 15895 columns.
Aggregator did 723 substitutions.
Reduced LP has 5391 rows, 9847 columns, and 31762 nonzeros.
Presolve time = 0.05 sec. (22.46 ticks)

Iteration log . . .
Iteration:     1   Dual objective     =             0.000000
Perturbation started.
Iteration:   101   Dual objective     =             0.000000
Iteration:   354   Dual objective     =             1.404151
Iteration:   637   Dual objective     =             2.037780
Iteration:   946   Dual objective     =             2.184410
Iteration:  1137   Dual objective     =             2.300965
Iteration:  1488   Dual objective     =             2.369783
Iteration:  1788   Dual objective     =             2.400037
Iteration:  2068   Dual objective     =        116529.698782
Iteration:  2364   Dual objective     =        323480.447613
Iteration:  2697   Dual objective     =        464643.106326
Iteration:  2965   Dual objective     =        540330.405324
Iteration:  3297   Dual objective     =        542052.841178
Iteration:  3679   Dual objective     =        546302.325266
Iteration:  4091   Dual objective     =        546373.692414
Removing perturbation.

Dual simplex solved model.


Dual simplex - Optimal:  Objective =  5.4645895504e+05
Solution time =    0.16 sec.  Iterations = 4549 (0)
Deterministic time = 99.61 ticks  (634.47 ticks/sec)

CPLEX> Solution written to file 'C:\Users\llavi\Desktop\test919\logs\tmphmci90y8.cplex.sol'.
CPLEX> Exporting results... 
...storage offer mitigation file created
Converting model to MPEC...
...converted
NOTE: initial MIP solve with only storage competitive to get feasible solution
Solving...

Welcome to IBM(R) ILOG(R) CPLEX(R) Interactive Optimizer 12.8.0.0
  with Simplex, Mixed Integer & Barrier Optimizers
5725-A06 5725-A29 5724-Y48 5724-Y49 5724-Y54 5724-Y55 5655-Y21
Copyright IBM Corp. 1988, 2017.  All Rights Reserved.

Type 'help' for a list of available commands.
Type 'help' followed by a command name for more
information on commands.

CPLEX> Logfile 'cplex.log' closed.
Logfile 'C:\Users\llavi\Desktop\test919\logs\tmpw45lew0f.cplex.log' open.
CPLEX> New value for parallel optimization mode: -1
CPLEX> New value for mixed integer optimality gap tolerance: 0.01
CPLEX> New value for integrality tolerance: 1e-09
CPLEX> New value for feasibility tolerance: 0.01
CPLEX> New value for deterministic time limit in ticks: 75000
CPLEX> Problem 'C:\Users\llavi\Desktop\test919\logs\tmpffeh7gaw.pyomo.lp' read.
Read time = 0.34 sec. (13.96 ticks)
CPLEX> Problem name         : C:\Users\llavi\Desktop\test919\logs\tmpffeh7gaw.pyomo.lp
Objective sense      : Maximize
Variables            :   53805  [Nneg: 1,  Box: 22000,  Free: 4464,
                                 Binary: 27340]
Objective nonzeros   :    9077
Linear constraints   :  123205  [Less: 41346,  Greater: 59096,  Equal: 22763]
  Nonzeros           :  291704
  RHS nonzeros       :   67488

Variables            : Min LB: -5000.000        Max UB: 1000000.       
Objective nonzeros   : Min   : 0.4083333        Max   : 2500.000       
Linear constraints   :
  Nonzeros           : Min   : 0.4083333        Max   : 1000000.       
  RHS nonzeros       : Min   : 0.4083333        Max   : 1000000.       
CPLEX> CPXPARAM_Simplex_Tolerances_Feasibility          0.01
CPXPARAM_Parallel                                -1
CPXPARAM_DetTimeLimit                            75000
CPXPARAM_MIP_Tolerances_MIPGap                   0.01
CPXPARAM_MIP_Tolerances_Integrality              1.0000000000000001e-09
Tried aggregator 3 times.
MIP Presolve eliminated 88782 rows and 19130 columns.
MIP Presolve added 3345 rows and 0 columns.
MIP Presolve modified 23814 coefficients.
Aggregator did 12927 substitutions.
Reduced MIP has 24841 rows, 21192 columns, and 70825 nonzeros.
Reduced MIP has 8381 binaries, 0 generals, 0 SOSs, and 0 indicators.
Presolve time = 0.28 sec. (167.90 ticks)
Probing fixed 387 vars, tightened 2849 bounds.
Probing time = 3.06 sec. (878.61 ticks)
Tried aggregator 2 times.
MIP Presolve eliminated 874 rows and 775 columns.
MIP Presolve modified 2233 coefficients.
Aggregator did 40 substitutions.
Reduced MIP has 23927 rows, 20377 columns, and 68177 nonzeros.
Reduced MIP has 7994 binaries, 0 generals, 0 SOSs, and 0 indicators.
Presolve time = 0.11 sec. (55.59 ticks)
Probing time = 0.05 sec. (15.46 ticks)
Clique table members: 6349.
MIP emphasis: balance optimality and feasibility.
MIP search method: dynamic search.
Parallel mode: opportunistic, using up to 4 threads.
Root relaxation solution time = 0.70 sec. (625.92 ticks)

        Nodes                                         Cuts/
   Node  Left     Objective  IInf  Best Integer    Best Bound    ItCnt     Gap

      0     0       -0.9532   883                     -0.9532     4271         
      0     3    infeasible                           -0.9532     4288         
Elapsed time = 15.17 sec. (4823.49 ticks, tree = 0.02 MB, solutions = 0)
     55    14    infeasible                           -2.1479     4316         
     79    36      -27.7719     4                     -2.1479     4374         
    102    42    infeasible                           -2.1479     4395         
    120    51       -6.5897     1                     -2.1479     4411         
    137    54       -6.5897     1                     -2.1479     4425         
    156    56      -27.7719     1                     -2.1479     4431         
    172    56      -27.7719     1                     -2.1479     4439         
    188    57      -27.7719     1                     -2.1479     4444         
    200    59      -27.7719     1                     -2.1479     4454         
    242    59       -6.5897     1                     -2.1479     4477         
Elapsed time = 20.89 sec. (8476.94 ticks, tree = 0.18 MB, solutions = 0)
    272    58    infeasible                           -2.1479     4494         
    292    59      -27.7719     1                     -2.1479     4498         
    341    60    infeasible                           -2.1479     4522         
    399    64      -27.7719     1                     -2.1479     5052         
    425    72    infeasible                           -2.1479     6101         
    442    74       -6.5897     1                     -2.1479     6105         
    464    76      -27.7719     1                     -2.1479     6112         
    478    76       -6.5897     1                     -2.1479     6122         
    494    79       -6.5897     1                     -2.1479     6139         
    508    79      -27.7719     1                     -2.1479     6140         
Elapsed time = 34.05 sec. (19159.46 ticks, tree = 0.25 MB, solutions = 0)
    522    79      -27.7719     1                     -2.1479     6142         
    542    79    infeasible                           -2.1479     6179         
    559    80       -6.5897     1                     -2.1479     6177         
    576    83      -27.7719     1                     -2.1479     6222         
    596    84      -27.7719     1                     -2.1479     6226         
    622    95      -27.7719     1                     -2.1479     6311         
    639    92       -6.5897     1                     -2.1479     6306         
    657   100      -59.8291     1                     -2.1479     6332         
    668   114       -6.5897     1                     -2.1479     6371         
    677   125      -28.3836     1                     -2.1479     6469         
Elapsed time = 46.00 sec. (29620.66 ticks, tree = 0.42 MB, solutions = 0)
    685   127       -6.5897     1                     -2.1479     6499         
    699   132       -6.5897     1                     -2.1479     6519         
    711   133       -6.5897     1                     -2.1479     6577         
    723   138       -6.5897     1                     -2.1479     6628         
    742   139       -6.5897     1                     -2.1479     6664         
    783   149       -6.5897     1                     -2.1479     6702         
    812   143      -81.6114     1                     -2.1479     6680         
    829   144      -81.6114     1                     -2.1479     6684         
    845   157      -81.6114     1                     -2.1479     6793         
    860   183       -6.5897     3                     -2.1479     6903         
Elapsed time = 59.30 sec. (40452.75 ticks, tree = 0.70 MB, solutions = 0)
    874   184       -6.5897     1                     -2.1479     6904         
    890   185       -6.5897     1                     -2.1479     6906         
    906   194       -6.5897     1                     -2.1479     6932         
    921   192    infeasible                           -2.1479     6933         
    930   197       -6.5897     1                     -2.1479     6939         
    942   198       -6.5897     1                     -2.1479     6943         
    955   205       -6.5897     1                     -2.1479     6962         
    966   203      -81.6114     1                     -2.1479     6991         
    981   211      -81.6114     1                     -2.1479     7016         
    992   219       -6.5897     4                     -2.1479     7086         
Elapsed time = 73.36 sec. (52260.30 ticks, tree = 0.98 MB, solutions = 0)
   1001   216       -6.5897     1                     -2.1479     7063         
   1016   218      -81.6114     3                     -2.1479     7171         
   1024   227       -6.5897     3                     -2.1479     7187         
   1034   235       -6.5897     4                     -2.1479     7427         
   1040   221      -81.6114     1                     -2.1479     7280         
   1051   233       -6.5897     3                     -2.1479     7404         
*  1052   232      integral     0     -592.7810       -2.1479     7424   99.64%
   1062   234       -6.5897     1     -592.7810       -2.1479     7478   99.64%
   1105   269       -6.5897     4     -592.7810       -2.1479     7783   99.64%
*  1136   294      integral     0      -86.3379       -2.1479     7831   97.51%
   1156   238       -6.5897     1      -86.3379       -2.1479     7540   97.51%
   1187   308       -6.6241     4      -86.3379       -2.1479     8071   97.51%
Elapsed time = 86.73 sec. (62410.65 ticks, tree = 1.68 MB, solutions = 2)
   1249   334      -27.7719     3      -86.3379       -2.1479     8213   97.51%
   1281   247       -6.5897     1      -86.3379       -2.1479     7819   97.51%
   1313   344      -27.7719     1      -86.3379       -2.1479     8481   97.51%
   1339   343        cutoff            -86.3379       -2.1479     8487   97.51%
   1377   345        cutoff            -86.3379       -2.1479     8494   97.51%
   1450   355      -81.6114     3      -86.3379       -2.1479     8572   97.51%
   1515   392      -81.6114     3      -86.3379       -2.1479     8809   97.51%
   1543   467        cutoff            -86.3379       -2.1479     9360   97.51%
   1572   356       -6.5897     1      -86.3379       -2.1479     8571   97.51%
   1594   471      -27.7719     1      -86.3379       -2.1479     9395   97.51%
Elapsed time = 98.70 sec. (72312.53 ticks, tree = 3.29 MB, solutions = 2)
   1614   471       -6.6241     1      -86.3379       -2.1479     9377   97.51%
   1632   470        cutoff            -86.3379       -2.1479     9378   97.51%
   1676   481      -81.6458     1      -86.3379       -2.1479     9417   97.51%

Root node processing (before b&c):
  Real time             =   14.98 sec. (4807.51 ticks)
Parallel b&c, 4 threads:
  Real time             =   85.73 sec. (70399.18 ticks)
  Sync time (average)   =    0.09 sec.
  Wait time (average)   =    0.01 sec.
                          ------------
Total (root+branch&cut) =  100.72 sec. (75206.69 ticks)

Solution pool: 2 solutions saved.

MIP - Deterministic time limit exceeded, integer feasible:  Objective = -8.6337861995e+01
Current MIP best bound = -2.1479461724e+00 (gap = 84.1899, 97.51%)
Solution time =  100.73 sec.  Iterations = 9689  Nodes = 1677 (514)
Deterministic time = 75206.85 ticks  (746.59 ticks/sec)

CPLEX> Incumbent solution written to file 'C:\Users\llavi\Desktop\test919\logs\tmpsr_dwrds.cplex.sol'.
CPLEX> NOTE: no warmstart specified for MIP iteration, default behavior is true
NOTE: resolving with all competitive generators using storage-only solution to warmstart
Solving...

Welcome to IBM(R) ILOG(R) CPLEX(R) Interactive Optimizer 12.8.0.0
  with Simplex, Mixed Integer & Barrier Optimizers
5725-A06 5725-A29 5724-Y48 5724-Y49 5724-Y54 5724-Y55 5655-Y21
Copyright IBM Corp. 1988, 2017.  All Rights Reserved.

Type 'help' for a list of available commands.
Type 'help' followed by a command name for more
information on commands.

CPLEX> Logfile 'cplex.log' closed.
Logfile 'C:\Users\llavi\Desktop\test919\logs\tmpozjg1fv6.cplex.log' open.
CPLEX> New value for parallel optimization mode: -1
CPLEX> New value for mixed integer optimality gap tolerance: 0.01
CPLEX> New value for integrality tolerance: 1e-09
CPLEX> New value for feasibility tolerance: 0.01
CPLEX> New value for deterministic time limit in ticks: 75000
CPLEX> Problem 'C:\Users\llavi\Desktop\test919\logs\tmp_o49l5lr.pyomo.lp' read.
Read time = 0.27 sec. (13.98 ticks)
CPLEX> MIP start file 'C:\Users\llavi\Desktop\test919\logs\tmp6of1_gwo.cplex.mst' read.
CPLEX> Problem name         : C:\Users\llavi\Desktop\test919\logs\tmp_o49l5lr.pyomo.lp
Objective sense      : Maximize
Variables            :   54525  [Nneg: 1,  Box: 22720,  Free: 4464,
                                 Binary: 27340]
Objective nonzeros   :    9773
Linear constraints   :  123205  [Less: 41346,  Greater: 59096,  Equal: 22763]
  Nonzeros           :  291704
  RHS nonzeros       :   67488

Variables            : Min LB: -5000.000        Max UB: 1000000.       
Objective nonzeros   : Min   : 0.4083333        Max   : 2500.000       
Linear constraints   :
  Nonzeros           : Min   : 0.4083333        Max   : 1000000.       
  RHS nonzeros       : Min   : 0.4083333        Max   : 1000000.       
CPLEX> CPXPARAM_Simplex_Tolerances_Feasibility          0.01
CPXPARAM_Parallel                                -1
CPXPARAM_DetTimeLimit                            75000
CPXPARAM_MIP_Tolerances_MIPGap                   0.01
CPXPARAM_MIP_Tolerances_Integrality              1.0000000000000001e-09
Warning:  No solution found from 1 MIP starts.
Retaining values of one MIP start for possible repair.
Tried aggregator 3 times.
MIP Presolve eliminated 88782 rows and 19850 columns.
MIP Presolve added 3345 rows and 0 columns.
MIP Presolve modified 23814 coefficients.
Aggregator did 12927 substitutions.
Reduced MIP has 24841 rows, 21192 columns, and 70825 nonzeros.
Reduced MIP has 8381 binaries, 0 generals, 0 SOSs, and 0 indicators.
Presolve time = 0.25 sec. (168.27 ticks)
Probing fixed 387 vars, tightened 2849 bounds.
Probing time = 3.03 sec. (878.61 ticks)
Tried aggregator 2 times.
MIP Presolve eliminated 874 rows and 775 columns.
MIP Presolve modified 2233 coefficients.
Aggregator did 40 substitutions.
Reduced MIP has 23927 rows, 20377 columns, and 68177 nonzeros.
Reduced MIP has 7994 binaries, 0 generals, 0 SOSs, and 0 indicators.
Presolve time = 0.11 sec. (55.61 ticks)
Probing time = 0.05 sec. (15.46 ticks)
Clique table members: 6349.
MIP emphasis: balance optimality and feasibility.
MIP search method: dynamic search.
Parallel mode: opportunistic, using up to 4 threads.
Root relaxation solution time = 0.64 sec. (630.75 ticks)

        Nodes                                         Cuts/
   Node  Left     Objective  IInf  Best Integer    Best Bound    ItCnt     Gap

      0     0    40886.0289   898                  40886.0289     4355         
      0     0    40885.7716   657                   Cuts: 738     4679         
      0     0    40885.4393   501                   Cuts: 607     4905         
      0     0    40875.4402   423                   Cuts: 300     5021         
      0     0    40875.4402   402                    Cuts: 81     5057         
      0     0    40874.8640   381                    Cuts: 89     5083         
      0     0    40874.8640   380                    Cuts: 59     5090         
Repair heuristic found nothing.
      0     4    36009.0598    26                  40874.2822     5114         
Elapsed time = 26.59 sec. (9865.08 ticks, tree = 0.03 MB, solutions = 0)
     91    49    40790.8690    16                  40871.1787     5657         
    152   127    40228.2064     8                  40871.1787     6864         
    207   167    21943.6428     3                  40871.1787     7525         
    257   185    infeasible                        40871.1787     8103         
    311   219    infeasible                        40871.1787     8193         
    346   238    40870.5505    26                  40869.9224     9414         
    385   262    40865.5260    17                  40869.2549     9507         
    418   298    40806.5272     8                  40869.2549     9630         
    439   262    infeasible                        40869.2549     9500         
    528   321    infeasible                        40869.2549    10025         
Elapsed time = 31.53 sec. (13011.54 ticks, tree = 1.94 MB, solutions = 0)
    566   332    35918.0069     2                  40869.2549    10065         
    603   335    infeasible                        40869.2549    10085         
    645   358    35918.0069     4                  40869.2549    10217         
    677   366    35301.8443     2                  40869.2549    10254         
    702   391    28569.2248     2                  40869.2549    10516         
    743   413    28197.7615     1                  40869.2549    10754         
    769   421    21679.2186     2                  40869.2549    10930         
    800   455    21682.1385     2                  40869.2549    11426         
    878   508    40797.3611     3                  40869.2549    12497         
    949   523    40797.3611     1                  40869.2549    12736         
Elapsed time = 42.67 sec. (23293.16 ticks, tree = 3.63 MB, solutions = 0)
   1008   560    40797.3611     1                  40869.2549    13655         
   1053   570    40797.3611     1                  40869.2549    13711         
   1097   590    infeasible                        40869.2549    13783         
   1173   639    12606.5550    19                  40869.2549    14165         
   1272   707    40710.6427     5                  40869.2549    14981         
   1354   754    40806.5272     7                  40869.2549    16125         
   1392   757    40792.1993     5                  40869.2549    16152         
   1421   752    40791.8489     4                  40869.2549    15529         
   1442   755    40791.8489     1                  40869.2549    15596         
   1472   754    40783.2493     6                  40869.2549    15603         
Elapsed time = 56.45 sec. (33507.63 ticks, tree = 5.92 MB, solutions = 0)
   1498   810    40792.1993     5                  40869.2549    16654         
   1518   810    40792.1993     5                  40869.2549    16658         
   1586   846    infeasible                        40869.2549    16936         
   1632   873    40792.1993     5                  40869.2549    17138         
   1676   892    40785.4045     7                  40869.2549    17215         
   1703   880    40783.2493     6                  40869.2549    17215         
*  1705+  680                        35027.4083    40869.2549            16.68%
   1769   705    35640.8692     3    35027.4083    40869.2549    17478   16.68%
   1828   677    40783.2493     9    35027.4083    40869.2549    17460   16.68%
   1921   793        cutoff          35027.4083    40869.2549    17960   16.68%
Elapsed time = 67.53 sec. (42759.96 ticks, tree = 6.41 MB, solutions = 1)
   1956   859    40851.8416     4    35027.4083    40869.2549    18338   16.68%
   2005   861    40761.7743     2    35027.4083    40869.2549    18318   16.68%
   2029   892        cutoff          35027.4083    40869.2549    18499   16.68%
   2057   884        cutoff          35027.4083    40869.2549    18486   16.68%
   2080   899        cutoff          35027.4083    40869.2549    18622   16.68%
   2117   899        cutoff          35027.4083    40869.2549    18623   16.68%
   2211   902    40538.6971     1    35027.4083    40869.2549    18646   16.68%
   2237   913    40538.6971     1    35027.4083    40869.2549    18696   16.68%
   2262   931    40851.8416     4    35027.4083    40869.2549    18729   16.68%
   2288   967    40538.6971     1    35027.4083    40869.2549    19123   16.68%
Elapsed time = 78.47 sec. (52604.72 ticks, tree = 5.79 MB, solutions = 2)
*  2302   974      integral     0    40399.7907    40869.2549    19179    1.16%
   2369   796        cutoff          40399.7907    40865.2163    20109    1.15%
   2474   866    40834.0707    20    40399.7907    40865.2163    20126    1.15%
   2507   931        cutoff          40399.7907    40865.2163    27901    1.15%
   2807    42    40871.9802    67    40399.7907    40865.2163    27957    1.15%
   3067   436    40844.7086    54    40399.7907    40865.2163    29646    1.15%
   3410   479    40839.3149    39    40399.7907    40865.2163    30020    1.15%
   3827   707    40846.2741    84    40399.7907    40865.2163    31094    1.15%
*  3845   558      integral     0    40839.2217    40865.2163    30597    0.06%

GUB cover cuts applied:  3
Clique cuts applied:  5
Cover cuts applied:  17
Implied bound cuts applied:  11
Flow cuts applied:  165
Mixed integer rounding cuts applied:  20
Gomory fractional cuts applied:  45

Root node processing (before b&c):
  Real time             =   26.34 sec. (9842.32 ticks)
Parallel b&c, 4 threads:
  Real time             =   74.16 sec. (52264.13 ticks)
  Sync time (average)   =    1.02 sec.
  Wait time (average)   =    0.03 sec.
                          ------------
Total (root+branch&cut) =  100.50 sec. (62106.45 ticks)

Solution pool: 3 solutions saved.

MIP - Integer optimal, tolerance (0.01/1e-06):  Objective =  4.0839221687e+04
Current MIP best bound =  4.0865216322e+04 (gap = 25.9946, 0.06%)
Solution time =  100.52 sec.  Iterations = 31952  Nodes = 3846 (343)
Deterministic time = 62106.61 ticks  (617.88 ticks/sec)

CPLEX> Incumbent solution written to file 'C:\Users\llavi\Desktop\test919\logs\tmpyrakjru8.cplex.sol'.
CPLEX> Exporting results... 
